0 0 0 0
0 1 2 0
0 2 0 0
0 3 1 0
0 4 2 8
0 5 1 3
0 6 2 19
0 7 0 3
0 8 1 7
0 9 2 4
0 10 0 13
0 11 0 7
0 12 2 12
0 13 2 3
0 14 1 8
0 15 2 9
0 16 1 15
0 17 0 11
0 18 2 16
0 19 2 7
0 20 2 13
0 21 1 22
0 22 0 18
0 23 2 22
0 24 2 15
0 25 0 19
0 26 2 16
0 27 0 25
0 28 2 26
0 29 2 22
0 30 1 29
0 31 0 32
